;; translated from ./ctigar/dillig25.c.vmt
;; original benchmark available at: https://es-static.fbk.eu/people/griggio/ic3ia/index.html
;; author: Alberto Griggio <griggio@fbk.eu>
(set-logic HORN)
(declare-fun state (Bool Bool Bool Bool Bool Int Int Int Int) Bool)
(assert (forall ((|.s.2| Bool) (|.s.0| Bool) (|.s.1| Bool) (|.s.1.next| Bool) (|.s.0.next| Bool) (|.s.2.next| Bool) (|.s.3.next| Bool) (|.s.4.next| Bool) (|main.i.next| Int) (|main.i| Int) (|main.j.next| Int) (|main.j| Int) (|main.x.next| Int) (|main.x| Int) (|main.y.next| Int) (|main.y| Int) (|.inputVar.0| Int) (|.s.4| Bool) (|.s.3| Bool)) (=> (let ((.def_20 (not .s.4)))
(let ((.def_17 (not .s.3)))
(let ((.def_14 (not .s.2)))
(let ((.def_10 (not .s.1)))
(let ((.def_12 (and .def_10 .s.0)))
(let ((.def_15 (and .def_12 .def_14)))
(let ((.def_18 (and .def_15 .def_17)))
(let ((.def_21 (and .def_18 .def_20)))
.def_21)))))))) (state |.s.1| |.s.0| |.s.2| |.s.3| |.s.4| |main.i| |main.j| |main.x| |main.y|))))
(assert (forall ((|.s.2| Bool) (|.s.0| Bool) (|.s.1| Bool) (|.s.1.next| Bool) (|.s.0.next| Bool) (|.s.2.next| Bool) (|.s.3.next| Bool) (|.s.4.next| Bool) (|main.i.next| Int) (|main.i| Int) (|main.j.next| Int) (|main.j| Int) (|main.x.next| Int) (|main.x| Int) (|main.y.next| Int) (|main.y| Int) (|.inputVar.0| Int) (|.s.4| Bool) (|.s.3| Bool)) (=> (and (state |.s.1| |.s.0| |.s.2| |.s.3| |.s.4| |main.i| |main.j| |main.x| |main.y|) (let ((.def_22 (not .s.0)))
(let ((.def_10 (not .s.1)))
(let ((.def_70 (and .def_10 .def_22)))
(let ((.def_14 (not .s.2)))
(let ((.def_71 (and .def_14 .def_70)))
(let ((.def_17 (not .s.3)))
(let ((.def_72 (and .def_17 .def_71)))
(let ((.def_20 (not .s.4)))
(let ((.def_303 (and .def_20 .def_72)))
(let ((.def_304 (not .def_303)))
(let ((.def_60 (not .s.1.next)))
(let ((.def_29 (not .s.0.next)))
(let ((.def_61 (and .def_29 .def_60)))
(let ((.def_33 (not .s.2.next)))
(let ((.def_62 (and .def_33 .def_61)))
(let ((.def_36 (not .s.3.next)))
(let ((.def_63 (and .def_36 .def_62)))
(let ((.def_59 (not .s.4.next)))
(let ((.def_64 (and .def_59 .def_63)))
(let ((.def_42 (= main.i main.i.next)))
(let ((.def_65 (and .def_42 .def_64)))
(let ((.def_46 (= main.j main.j.next)))
(let ((.def_66 (and .def_46 .def_65)))
(let ((.def_50 (= main.x main.x.next)))
(let ((.def_67 (and .def_50 .def_66)))
(let ((.def_54 (= main.y main.y.next)))
(let ((.def_68 (and .def_54 .def_67)))
(let ((.def_305 (or .def_68 .def_304)))
(let ((.def_297 (= main.y.next 0)))
(let ((.def_31 (and .def_29 .s.1.next)))
(let ((.def_34 (and .def_31 .def_33)))
(let ((.def_37 (and .def_34 .def_36)))
(let ((.def_136 (and .def_37 .def_59)))
(let ((.def_298 (and .def_136 .def_297)))
(let ((.def_296 (= main.j.next 0)))
(let ((.def_299 (and .def_296 .def_298)))
(let ((.def_295 (= main.x.next 0)))
(let ((.def_300 (and .def_295 .def_299)))
(let ((.def_294 (= main.i.next 0)))
(let ((.def_301 (and .def_294 .def_300)))
(let ((.def_12 (and .def_10 .s.0)))
(let ((.def_15 (and .def_12 .def_14)))
(let ((.def_18 (and .def_15 .def_17)))
(let ((.def_21 (and .def_18 .def_20)))
(let ((.def_293 (not .def_21)))
(let ((.def_302 (or .def_293 .def_301)))
(let ((.def_306 (and .def_302 .def_305)))
(let ((.def_23 (and .s.1 .def_22)))
(let ((.def_24 (and .def_14 .def_23)))
(let ((.def_25 (and .def_17 .def_24)))
(let ((.def_280 (and .def_20 .def_25)))
(let ((.def_260 (= .inputVar.0 0)))
(let ((.def_290 (and .def_260 .def_280)))
(let ((.def_291 (not .def_290)))
(let ((.def_157 (and .s.0.next .s.1.next)))
(let ((.def_158 (and .def_33 .def_157)))
(let ((.def_215 (and .def_36 .def_158)))
(let ((.def_216 (and .def_59 .def_215)))
(let ((.def_217 (and .def_42 .def_216)))
(let ((.def_218 (and .def_46 .def_217)))
(let ((.def_219 (and .def_50 .def_218)))
(let ((.def_220 (and .def_54 .def_219)))
(let ((.def_292 (or .def_220 .def_291)))
(let ((.def_307 (and .def_292 .def_306)))
(let ((.def_248 (and .s.2.next .def_157)))
(let ((.def_283 (and .s.3.next .def_248)))
(let ((.def_284 (and .def_59 .def_283)))
(let ((.def_285 (and .def_42 .def_284)))
(let ((.def_286 (and .def_46 .def_285)))
(let ((.def_287 (and .def_50 .def_286)))
(let ((.def_288 (and .def_54 .def_287)))
(let ((.def_261 (not .def_260)))
(let ((.def_281 (and .def_261 .def_280)))
(let ((.def_282 (not .def_281)))
(let ((.def_289 (or .def_282 .def_288)))
(let ((.def_308 (and .def_289 .def_307)))
(let ((.def_109 (and .s.2.next .def_61)))
(let ((.def_273 (and .def_36 .def_109)))
(let ((.def_274 (and .def_59 .def_273)))
(let ((.def_275 (and .def_42 .def_274)))
(let ((.def_276 (and .def_46 .def_275)))
(let ((.def_277 (and .def_50 .def_276)))
(let ((.def_278 (and .def_54 .def_277)))
(let ((.def_84 (and .s.1 .s.0)))
(let ((.def_142 (and .def_14 .def_84)))
(let ((.def_256 (and .def_17 .def_142)))
(let ((.def_257 (and .def_20 .def_256)))
(let ((.def_271 (and .def_257 .def_260)))
(let ((.def_272 (not .def_271)))
(let ((.def_279 (or .def_272 .def_278)))
(let ((.def_309 (and .def_279 .def_308)))
(let ((.def_75 (and .s.0.next .def_60)))
(let ((.def_76 (and .def_33 .def_75)))
(let ((.def_264 (and .s.3.next .def_76)))
(let ((.def_265 (and .def_59 .def_264)))
(let ((.def_266 (and .def_42 .def_265)))
(let ((.def_267 (and .def_46 .def_266)))
(let ((.def_268 (and .def_50 .def_267)))
(let ((.def_269 (and .def_54 .def_268)))
(let ((.def_262 (and .def_257 .def_261)))
(let ((.def_263 (not .def_262)))
(let ((.def_270 (or .def_263 .def_269)))
(let ((.def_310 (and .def_270 .def_309)))
(let ((.def_249 (and .def_36 .def_248)))
(let ((.def_250 (and .def_59 .def_249)))
(let ((.def_251 (and .def_42 .def_250)))
(let ((.def_252 (and .def_46 .def_251)))
(let ((.def_253 (and .def_50 .def_252)))
(let ((.def_254 (and .def_54 .def_253)))
(let ((.def_235 (= main.x main.y)))
(let ((.def_245 (not .def_235)))
(let ((.def_132 (and .s.2 .def_70)))
(let ((.def_233 (and .def_17 .def_132)))
(let ((.def_234 (and .def_20 .def_233)))
(let ((.def_246 (and .def_234 .def_245)))
(let ((.def_247 (not .def_246)))
(let ((.def_255 (or .def_247 .def_254)))
(let ((.def_311 (and .def_255 .def_310)))
(let ((.def_181 (and .s.2.next .def_75)))
(let ((.def_238 (and .def_36 .def_181)))
(let ((.def_239 (and .def_59 .def_238)))
(let ((.def_240 (and .def_42 .def_239)))
(let ((.def_241 (and .def_46 .def_240)))
(let ((.def_242 (and .def_50 .def_241)))
(let ((.def_243 (and .def_54 .def_242)))
(let ((.def_236 (and .def_234 .def_235)))
(let ((.def_237 (not .def_236)))
(let ((.def_244 (or .def_237 .def_243)))
(let ((.def_312 (and .def_244 .def_311)))
(let ((.def_225 (* (- 1) main.i.next)))
(let ((.def_226 (+ main.i .def_225)))
(let ((.def_227 (= .def_226 (- 1))))
(let ((.def_121 (and .def_31 .s.2.next)))
(let ((.def_192 (and .def_36 .def_121)))
(let ((.def_193 (and .def_59 .def_192)))
(let ((.def_228 (and .def_193 .def_227)))
(let ((.def_229 (and .def_46 .def_228)))
(let ((.def_230 (and .def_50 .def_229)))
(let ((.def_231 (and .def_54 .def_230)))
(let ((.def_117 (and .def_12 .s.2)))
(let ((.def_222 (and .def_17 .def_117)))
(let ((.def_223 (and .def_20 .def_222)))
(let ((.def_224 (not .def_223)))
(let ((.def_232 (or .def_224 .def_231)))
(let ((.def_313 (and .def_232 .def_312)))
(let ((.def_105 (and .s.2 .def_23)))
(let ((.def_212 (and .def_17 .def_105)))
(let ((.def_213 (and .def_20 .def_212)))
(let ((.def_214 (not .def_213)))
(let ((.def_221 (or .def_214 .def_220)))
(let ((.def_314 (and .def_221 .def_313)))
(let ((.def_205 (and .s.3.next .def_62)))
(let ((.def_206 (and .def_59 .def_205)))
(let ((.def_202 (* (- 1) main.j.next)))
(let ((.def_203 (+ main.j .def_202)))
(let ((.def_204 (= .def_203 (- 1))))
(let ((.def_207 (and .def_204 .def_206)))
(let ((.def_208 (and .def_42 .def_207)))
(let ((.def_209 (and .def_50 .def_208)))
(let ((.def_210 (and .def_54 .def_209)))
(let ((.def_85 (and .s.2 .def_84)))
(let ((.def_199 (and .def_17 .def_85)))
(let ((.def_200 (and .def_20 .def_199)))
(let ((.def_201 (not .def_200)))
(let ((.def_211 (or .def_201 .def_210)))
(let ((.def_315 (and .def_211 .def_314)))
(let ((.def_194 (and .def_42 .def_193)))
(let ((.def_195 (and .def_46 .def_194)))
(let ((.def_196 (and .def_50 .def_195)))
(let ((.def_197 (and .def_54 .def_196)))
(let ((.def_189 (and .s.3 .def_71)))
(let ((.def_190 (and .def_20 .def_189)))
(let ((.def_191 (not .def_190)))
(let ((.def_198 (or .def_191 .def_197)))
(let ((.def_316 (and .def_198 .def_315)))
(let ((.def_182 (and .s.3.next .def_181)))
(let ((.def_183 (and .def_59 .def_182)))
(let ((.def_184 (and .def_42 .def_183)))
(let ((.def_185 (and .def_46 .def_184)))
(let ((.def_186 (and .def_50 .def_185)))
(let ((.def_187 (and .def_54 .def_186)))
(let ((.def_168 (<= main.j main.i)))
(let ((.def_178 (not .def_168)))
(let ((.def_166 (and .def_15 .s.3)))
(let ((.def_167 (and .def_20 .def_166)))
(let ((.def_179 (and .def_167 .def_178)))
(let ((.def_180 (not .def_179)))
(let ((.def_188 (or .def_180 .def_187)))
(let ((.def_317 (and .def_188 .def_316)))
(let ((.def_171 (and .def_34 .s.3.next)))
(let ((.def_172 (and .def_59 .def_171)))
(let ((.def_173 (and .def_42 .def_172)))
(let ((.def_174 (and .def_46 .def_173)))
(let ((.def_175 (and .def_50 .def_174)))
(let ((.def_176 (and .def_54 .def_175)))
(let ((.def_169 (and .def_167 .def_168)))
(let ((.def_170 (not .def_169)))
(let ((.def_177 (or .def_170 .def_176)))
(let ((.def_318 (and .def_177 .def_317)))
(let ((.def_159 (and .s.3.next .def_158)))
(let ((.def_160 (and .def_59 .def_159)))
(let ((.def_154 (* (- 1) main.x.next)))
(let ((.def_155 (+ main.x .def_154)))
(let ((.def_156 (= .def_155 (- 1))))
(let ((.def_161 (and .def_156 .def_160)))
(let ((.def_162 (and .def_42 .def_161)))
(let ((.def_163 (and .def_46 .def_162)))
(let ((.def_164 (and .def_54 .def_163)))
(let ((.def_151 (and .s.3 .def_24)))
(let ((.def_152 (and .def_20 .def_151)))
(let ((.def_153 (not .def_152)))
(let ((.def_165 (or .def_153 .def_164)))
(let ((.def_319 (and .def_165 .def_318)))
(let ((.def_124 (* (- 1) main.y.next)))
(let ((.def_125 (+ main.y .def_124)))
(let ((.def_126 (= .def_125 (- 1))))
(let ((.def_110 (and .s.3.next .def_109)))
(let ((.def_111 (and .def_59 .def_110)))
(let ((.def_146 (and .def_111 .def_126)))
(let ((.def_147 (and .def_42 .def_146)))
(let ((.def_148 (and .def_46 .def_147)))
(let ((.def_149 (and .def_50 .def_148)))
(let ((.def_143 (and .s.3 .def_142)))
(let ((.def_144 (and .def_20 .def_143)))
(let ((.def_145 (not .def_144)))
(let ((.def_150 (or .def_145 .def_149)))
(let ((.def_320 (and .def_150 .def_319)))
(let ((.def_137 (and .def_42 .def_136)))
(let ((.def_138 (and .def_46 .def_137)))
(let ((.def_139 (and .def_50 .def_138)))
(let ((.def_140 (and .def_54 .def_139)))
(let ((.def_133 (and .s.3 .def_132)))
(let ((.def_134 (and .def_20 .def_133)))
(let ((.def_135 (not .def_134)))
(let ((.def_141 (or .def_135 .def_140)))
(let ((.def_321 (and .def_141 .def_320)))
(let ((.def_122 (and .s.3.next .def_121)))
(let ((.def_123 (and .def_59 .def_122)))
(let ((.def_127 (and .def_123 .def_126)))
(let ((.def_128 (and .def_42 .def_127)))
(let ((.def_129 (and .def_46 .def_128)))
(let ((.def_130 (and .def_50 .def_129)))
(let ((.def_118 (and .s.3 .def_117)))
(let ((.def_119 (and .def_20 .def_118)))
(let ((.def_120 (not .def_119)))
(let ((.def_131 (or .def_120 .def_130)))
(let ((.def_322 (and .def_131 .def_321)))
(let ((.def_112 (and .def_42 .def_111)))
(let ((.def_113 (and .def_46 .def_112)))
(let ((.def_114 (and .def_50 .def_113)))
(let ((.def_115 (and .def_54 .def_114)))
(let ((.def_106 (and .s.3 .def_105)))
(let ((.def_107 (and .def_20 .def_106)))
(let ((.def_108 (not .def_107)))
(let ((.def_116 (or .def_108 .def_115)))
(let ((.def_323 (and .def_116 .def_322)))
(let ((.def_90 (* (- 1) main.j)))
(let ((.def_91 (+ main.i .def_90)))
(let ((.def_92 (<= .def_91 (- 1))))
(let ((.def_86 (and .s.3 .def_85)))
(let ((.def_87 (and .def_20 .def_86)))
(let ((.def_102 (and .def_87 .def_92)))
(let ((.def_103 (not .def_102)))
(let ((.def_39 (and .def_37 .s.4.next)))
(let ((.def_43 (and .def_39 .def_42)))
(let ((.def_47 (and .def_43 .def_46)))
(let ((.def_51 (and .def_47 .def_50)))
(let ((.def_55 (and .def_51 .def_54)))
(let ((.def_104 (or .def_55 .def_103)))
(let ((.def_324 (and .def_104 .def_323)))
(let ((.def_96 (and .s.4.next .def_63)))
(let ((.def_97 (and .def_42 .def_96)))
(let ((.def_98 (and .def_46 .def_97)))
(let ((.def_99 (and .def_50 .def_98)))
(let ((.def_100 (and .def_54 .def_99)))
(let ((.def_93 (not .def_92)))
(let ((.def_94 (and .def_87 .def_93)))
(let ((.def_95 (not .def_94)))
(let ((.def_101 (or .def_95 .def_100)))
(let ((.def_325 (and .def_101 .def_324)))
(let ((.def_77 (and .def_36 .def_76)))
(let ((.def_78 (and .s.4.next .def_77)))
(let ((.def_79 (and .def_42 .def_78)))
(let ((.def_80 (and .def_46 .def_79)))
(let ((.def_81 (and .def_50 .def_80)))
(let ((.def_82 (and .def_54 .def_81)))
(let ((.def_73 (and .s.4 .def_72)))
(let ((.def_74 (not .def_73)))
(let ((.def_83 (or .def_74 .def_82)))
(let ((.def_326 (and .def_83 .def_325)))
(let ((.def_57 (and .def_18 .s.4)))
(let ((.def_58 (not .def_57)))
(let ((.def_69 (or .def_58 .def_68)))
(let ((.def_327 (and .def_69 .def_326)))
(let ((.def_26 (and .s.4 .def_25)))
(let ((.def_27 (not .def_26)))
(let ((.def_56 (or .def_27 .def_55)))
(let ((.def_328 (and .def_56 .def_327)))
.def_328))))))))))))))))))))))))))))))))))))))))))))))))))))))))))))))))))))))))))))))))))))))))))))))))))))))))))))))))))))))))))))))))))))))))))))))))))))))))))))))))))))))))))))))))))))))))))))))))))))))))))))))))))))))))))))))))))))))))))))))))))))))))))))))))))))))))))))))))))))))))))))))))))))))))))) (state |.s.1.next| |.s.0.next| |.s.2.next| |.s.3.next| |.s.4.next| |main.i.next| |main.j.next| |main.x.next| |main.y.next|))))
(assert (forall ((|.s.2| Bool) (|.s.0| Bool) (|.s.1| Bool) (|.s.1.next| Bool) (|.s.0.next| Bool) (|.s.2.next| Bool) (|.s.3.next| Bool) (|.s.4.next| Bool) (|main.i.next| Int) (|main.i| Int) (|main.j.next| Int) (|main.j| Int) (|main.x.next| Int) (|main.x| Int) (|main.y.next| Int) (|main.y| Int) (|.inputVar.0| Int) (|.s.4| Bool) (|.s.3| Bool)) (=> (state |.s.1| |.s.0| |.s.2| |.s.3| |.s.4| |main.i| |main.j| |main.x| |main.y|) (let ((.def_22 (not .s.0)))
(let ((.def_23 (and .s.1 .def_22)))
(let ((.def_14 (not .s.2)))
(let ((.def_24 (and .def_14 .def_23)))
(let ((.def_17 (not .s.3)))
(let ((.def_25 (and .def_17 .def_24)))
(let ((.def_26 (and .s.4 .def_25)))
(let ((.def_27 (not .def_26)))
.def_27)))))))))))
(check-sat)
